SAT
Model:
1 -> true
2 -> false
3 -> false
4 -> false
5 -> false
6 -> true
7 -> false
8 -> false
9 -> false
10 -> false
11 -> false
12 -> true
13 -> false
14 -> false
15 -> true
16 -> false
17 -> false
18 -> true
19 -> false
20 -> false
21 -> true
22 -> true
23 -> true
24 -> false
25 -> true
26 -> false
27 -> true
28 -> true
29 -> false
30 -> true
31 -> false
32 -> false
33 -> false
34 -> true
35 -> false
36 -> true
37 -> false
38 -> false
39 -> false
40 -> true
41 -> false
42 -> false
43 -> true
44 -> false
45 -> false
46 -> false
47 -> true
48 -> false
49 -> true
50 -> true
51 -> false
52 -> false
53 -> false
54 -> true
55 -> false
56 -> true
57 -> true
58 -> true
59 -> true
60 -> false
61 -> true
62 -> false
63 -> true
64 -> true
65 -> false
66 -> true
67 -> false
68 -> false
69 -> false
70 -> false
71 -> true
72 -> false
73 -> true
74 -> true
75 -> false
